# Solution for model count
# Objective value = 9
z#1 0
z#2 0
z#3 1
z#4 0
z#5 0
z#6 1
z#7 0
z#8 1
z#9 0
z#10 0
z#11 1
z#12 1
z#13 0
z#14 0
z#15 1
z#16 0
z#17 1
z#18 0
z#19 0
z#20 0
z#21 0
z#22 0
z#23 1
z#24 1
x#24 126
x#23 1422
x#22 0
x#21 0
x#20 0
x#19 0
x#18 0
x#17 658
x#16 0
x#15 570
x#14 0
x#13 0
x#12 901
x#11 878
x#10 0
x#9 0
x#8 3572
x#7 0
x#6 1622
x#5 0
x#4 0
x#3 251
x#2 0
x#1 0
